nN = 8;
nR = 40;
nH = 1;

a = [[22, 21, 20, 16, 15, 17, 18, 15, 24, 16, 18, 16, 23, 16, 18, 15, 17, 17, 23, 21, 17, 19, 22, 22, 18, 16, 25, 18, 25, 21, 23, 23, 15, 19, 16, 20, 15, 18, 23, 23], [20, 25, 24, 17, 20, 19, 23, 22, 17, 16, 19, 24, 18, 18, 19, 24, 16, 25, 20, 20, 24, 22, 23, 18, 17, 16, 15, 23, 23, 16, 15, 20, 22, 22, 25, 20, 24, 17, 24, 24], [22, 24, 17, 20, 21, 18, 16, 22, 24, 22, 24, 18, 16, 20, 15, 15, 24, 16, 21, 15, 20, 18, 17, 15, 21, 15, 22, 18, 22, 17, 24, 21, 18, 16, 20, 15, 16, 19, 19, 21], [19, 24, 24, 19, 17, 18, 25, 16, 20, 23, 22, 18, 16, 15, 16, 21, 25, 16, 25, 22, 25, 15, 19, 20, 16, 25, 17, 23, 23, 16, 25, 22, 22, 22, 20, 16, 22, 15, 20, 20], [22, 20, 24, 21, 24, 21, 24, 20, 21, 25, 22, 19, 17, 20, 23, 23, 20, 24, 23, 16, 19, 23, 20, 22, 19, 21, 20, 22, 19, 23, 21, 17, 21, 22, 24, 17, 22, 18, 15, 21], [20, 20, 18, 20, 22, 15, 20, 16, 25, 22, 19, 25, 17, 23, 18, 22, 24, 24, 15, 25, 23, 18, 15, 18, 17, 20, 16, 20, 15, 22, 18, 25, 18, 17, 21, 17, 24, 17, 24, 22], [25, 24, 22, 25, 17, 19, 23, 19, 16, 15, 15, 16, 21, 22, 23, 15, 20, 23, 22, 20, 16, 24, 20, 24, 25, 15, 21, 15, 25, 18, 16, 15, 24, 16, 15, 17, 17, 17, 15, 15], [21, 22, 25, 18, 25, 15, 24, 15, 25, 24, 15, 18, 16, 15, 17, 18, 15, 19, 22, 24, 25, 21, 23, 24, 17, 24, 20, 23, 20, 22, 24, 16, 25, 25, 18, 15, 24, 23, 24, 22]];
c = [[[0, 0, 0, 0, 0, 0, 0, 0, 0, 0, 0, 0, 0, 0, 0, 0, 0, 0, 0, 0, 0, 0, 0, 0, 0, 0, 0, 0, 0, 0, 0, 0, 0, 0, 0, 0, 0, 0, 0, 0], [39, 35, 37, 34, 35, 35, 32, 32, 41, 33, 38, 42, 39, 36, 50, 46, 50, 49, 49, 37, 39, 47, 48, 47, 36, 44, 38, 38, 34, 37, 31, 36, 31, 31, 39, 38, 31, 41, 34, 37], [36, 39, 48, 39, 31, 32, 34, 34, 34, 31, 34, 42, 34, 34, 49, 50, 50, 50, 37, 50, 47, 47, 30, 37, 39, 34, 37, 46, 49, 47, 36, 42, 46, 49, 37, 49, 38, 35, 48, 39], [39, 50, 42, 41, 44, 34, 40, 38, 43, 50, 49, 40, 40, 46, 41, 31, 49, 39, 40, 50, 48, 37, 41, 30, 39, 31, 33, 31, 37, 38, 36, 40, 33, 38, 47, 32, 44, 47, 34, 35], [33, 42, 44, 33, 50, 34, 44, 45, 44, 37, 37, 33, 40, 44, 34, 43, 50, 37, 34, 34, 43, 46, 44, 34, 48, 47, 47, 41, 42, 46, 36, 43, 39, 30, 32, 39, 36, 41, 37, 41], [36, 32, 49, 36, 48, 30, 31, 46, 36, 32, 31, 38, 36, 47, 45, 32, 38, 31, 30, 50, 46, 43, 33, 48, 34, 47, 34, 30, 44, 40, 38, 31, 45, 47, 34, 39, 36, 33, 50, 30], [42, 45, 37, 37, 37, 46, 42, 38, 35, 48, 50, 30, 41, 41, 31, 31, 37, 33, 35, 37, 31, 33, 39, 43, 34, 32, 33, 35, 38, 32, 31, 42, 40, 43, 33, 45, 47, 41, 43, 42], [44, 46, 47, 46, 32, 50, 31, 33, 47, 47, 42, 32, 36, 30, 47, 38, 48, 35, 31, 34, 32, 31, 37, 47, 37, 46, 41, 39, 38, 38, 31, 38, 50, 49, 40, 33, 44, 39, 49, 37]], [[0, 0, 0, 0, 0, 0, 0, 0, 0, 0, 0, 0, 0, 0, 0, 0, 0, 0, 0, 0, 0, 0, 0, 0, 0, 0, 0, 0, 0, 0, 0, 0, 0, 0, 0, 0, 0, 0, 0, 0], [0, 0, 0, 0, 0, 0, 0, 0, 0, 0, 0, 0, 0, 0, 0, 0, 0, 0, 0, 0, 0, 0, 0, 0, 0, 0, 0, 0, 0, 0, 0, 0, 0, 0, 0, 0, 0, 0, 0, 0], [49, 32, 42, 31, 33, 45, 32, 39, 33, 32, 37, 39, 36, 35, 39, 39, 34, 46, 37, 42, 38, 41, 31, 34, 49, 33, 39, 38, 40, 50, 48, 34, 38, 45, 43, 49, 31, 46, 30, 47], [43, 33, 43, 38, 42, 32, 40, 37, 40, 31, 32, 46, 45, 45, 49, 46, 38, 37, 30, 45, 47, 45, 42, 36, 50, 40, 44, 37, 33, 39, 43, 47, 46, 44, 36, 41, 42, 36, 48, 40], [46, 30, 38, 42, 45, 37, 30, 41, 38, 50, 35, 50, 31, 47, 38, 40, 35, 33, 40, 40, 32, 35, 41, 46, 49, 41, 40, 45, 50, 45, 30, 37, 46, 50, 35, 31, 42, 48, 44, 37], [40, 43, 41, 31, 32, 32, 36, 39, 39, 30, 32, 33, 33, 49, 47, 34, 49, 47, 45, 43, 36, 45, 33, 32, 39, 44, 50, 42, 47, 38, 40, 42, 32, 41, 30, 49, 30, 31, 31, 30], [47, 48, 45, 42, 39, 32, 37, 43, 36, 33, 32, 33, 30, 33, 32, 50, 38, 33, 50, 30, 49, 34, 42, 44, 40, 35, 35, 42, 44, 33, 44, 44, 46, 36, 47, 32, 48, 50, 47, 45], [41, 34, 32, 36, 41, 47, 43, 36, 40, 35, 49, 33, 40, 41, 49, 44, 49, 32, 43, 40, 40, 49, 49, 31, 34, 33, 30, 38, 41, 34, 45, 39, 48, 45, 35, 39, 43, 37, 34, 43]], [[0, 0, 0, 0, 0, 0, 0, 0, 0, 0, 0, 0, 0, 0, 0, 0, 0, 0, 0, 0, 0, 0, 0, 0, 0, 0, 0, 0, 0, 0, 0, 0, 0, 0, 0, 0, 0, 0, 0, 0], [0, 0, 0, 0, 0, 0, 0, 0, 0, 0, 0, 0, 0, 0, 0, 0, 0, 0, 0, 0, 0, 0, 0, 0, 0, 0, 0, 0, 0, 0, 0, 0, 0, 0, 0, 0, 0, 0, 0, 0], [0, 0, 0, 0, 0, 0, 0, 0, 0, 0, 0, 0, 0, 0, 0, 0, 0, 0, 0, 0, 0, 0, 0, 0, 0, 0, 0, 0, 0, 0, 0, 0, 0, 0, 0, 0, 0, 0, 0, 0], [50, 42, 30, 45, 38, 33, 49, 30, 42, 38, 35, 50, 30, 37, 44, 44, 41, 48, 48, 35, 50, 41, 38, 37, 32, 30, 49, 34, 42, 30, 50, 41, 48, 49, 42, 31, 30, 45, 41, 49], [34, 39, 41, 49, 49, 44, 34, 39, 46, 41, 31, 39, 41, 40, 34, 36, 34, 37, 31, 47, 47, 40, 36, 41, 46, 43, 30, 43, 36, 38, 46, 30, 33, 30, 34, 48, 43, 50, 43, 36], [37, 36, 39, 37, 39, 50, 31, 32, 50, 33, 45, 33, 36, 45, 34, 37, 34, 34, 48, 39, 44, 32, 45, 43, 41, 49, 36, 41, 50, 49, 45, 42, 41, 38, 46, 36, 49, 44, 37, 40], [40, 40, 48, 31, 38, 33, 50, 40, 30, 39, 43, 42, 39, 31, 33, 46, 46, 50, 30, 35, 43, 33, 38, 40, 39, 47, 36, 32, 33, 40, 44, 36, 45, 45, 43, 30, 46, 36, 35, 41], [47, 35, 47, 48, 30, 35, 46, 31, 40, 38, 49, 47, 32, 45, 48, 48, 34, 47, 40, 42, 39, 38, 39, 50, 42, 50, 49, 40, 36, 35, 33, 37, 46, 50, 39, 30, 33, 31, 36, 43]], [[0, 0, 0, 0, 0, 0, 0, 0, 0, 0, 0, 0, 0, 0, 0, 0, 0, 0, 0, 0, 0, 0, 0, 0, 0, 0, 0, 0, 0, 0, 0, 0, 0, 0, 0, 0, 0, 0, 0, 0], [0, 0, 0, 0, 0, 0, 0, 0, 0, 0, 0, 0, 0, 0, 0, 0, 0, 0, 0, 0, 0, 0, 0, 0, 0, 0, 0, 0, 0, 0, 0, 0, 0, 0, 0, 0, 0, 0, 0, 0], [0, 0, 0, 0, 0, 0, 0, 0, 0, 0, 0, 0, 0, 0, 0, 0, 0, 0, 0, 0, 0, 0, 0, 0, 0, 0, 0, 0, 0, 0, 0, 0, 0, 0, 0, 0, 0, 0, 0, 0], [0, 0, 0, 0, 0, 0, 0, 0, 0, 0, 0, 0, 0, 0, 0, 0, 0, 0, 0, 0, 0, 0, 0, 0, 0, 0, 0, 0, 0, 0, 0, 0, 0, 0, 0, 0, 0, 0, 0, 0], [34, 37, 48, 41, 37, 49, 33, 45, 31, 42, 48, 38, 41, 35, 43, 48, 46, 36, 50, 40, 46, 32, 36, 38, 35, 37, 40, 43, 31, 47, 39, 38, 40, 49, 42, 48, 34, 36, 47, 38], [40, 30, 32, 39, 41, 35, 39, 31, 31, 46, 50, 49, 32, 32, 35, 42, 48, 46, 35, 49, 34, 50, 49, 50, 48, 43, 42, 40, 43, 47, 44, 50, 45, 39, 32, 49, 35, 31, 37, 47], [30, 37, 36, 34, 45, 30, 42, 40, 30, 36, 49, 39, 44, 32, 49, 43, 38, 34, 47, 31, 42, 36, 44, 31, 43, 45, 40, 40, 34, 45, 38, 39, 39, 37, 34, 45, 37, 49, 44, 45], [41, 32, 40, 35, 31, 36, 33, 44, 39, 47, 48, 49, 49, 49, 42, 37, 46, 42, 41, 49, 42, 47, 50, 34, 33, 40, 39, 49, 36, 39, 33, 45, 44, 41, 50, 34, 36, 50, 33, 37]], [[0, 0, 0, 0, 0, 0, 0, 0, 0, 0, 0, 0, 0, 0, 0, 0, 0, 0, 0, 0, 0, 0, 0, 0, 0, 0, 0, 0, 0, 0, 0, 0, 0, 0, 0, 0, 0, 0, 0, 0], [0, 0, 0, 0, 0, 0, 0, 0, 0, 0, 0, 0, 0, 0, 0, 0, 0, 0, 0, 0, 0, 0, 0, 0, 0, 0, 0, 0, 0, 0, 0, 0, 0, 0, 0, 0, 0, 0, 0, 0], [0, 0, 0, 0, 0, 0, 0, 0, 0, 0, 0, 0, 0, 0, 0, 0, 0, 0, 0, 0, 0, 0, 0, 0, 0, 0, 0, 0, 0, 0, 0, 0, 0, 0, 0, 0, 0, 0, 0, 0], [0, 0, 0, 0, 0, 0, 0, 0, 0, 0, 0, 0, 0, 0, 0, 0, 0, 0, 0, 0, 0, 0, 0, 0, 0, 0, 0, 0, 0, 0, 0, 0, 0, 0, 0, 0, 0, 0, 0, 0], [0, 0, 0, 0, 0, 0, 0, 0, 0, 0, 0, 0, 0, 0, 0, 0, 0, 0, 0, 0, 0, 0, 0, 0, 0, 0, 0, 0, 0, 0, 0, 0, 0, 0, 0, 0, 0, 0, 0, 0], [36, 33, 42, 42, 49, 33, 36, 40, 37, 43, 38, 48, 49, 33, 39, 31, 33, 38, 35, 33, 36, 32, 40, 44, 42, 31, 31, 37, 43, 40, 45, 44, 31, 43, 43, 50, 43, 35, 38, 50], [39, 47, 31, 40, 30, 45, 46, 35, 40, 31, 43, 49, 49, 44, 39, 39, 44, 46, 47, 42, 46, 42, 47, 38, 39, 37, 41, 47, 40, 43, 31, 37, 42, 45, 44, 42, 35, 36, 30, 34], [39, 50, 37, 32, 38, 35, 43, 36, 35, 34, 39, 30, 39, 48, 39, 36, 45, 33, 37, 41, 50, 44, 40, 43, 47, 43, 50, 46, 35, 50, 45, 40, 33, 44, 41, 38, 46, 48, 35, 38]], [[0, 0, 0, 0, 0, 0, 0, 0, 0, 0, 0, 0, 0, 0, 0, 0, 0, 0, 0, 0, 0, 0, 0, 0, 0, 0, 0, 0, 0, 0, 0, 0, 0, 0, 0, 0, 0, 0, 0, 0], [0, 0, 0, 0, 0, 0, 0, 0, 0, 0, 0, 0, 0, 0, 0, 0, 0, 0, 0, 0, 0, 0, 0, 0, 0, 0, 0, 0, 0, 0, 0, 0, 0, 0, 0, 0, 0, 0, 0, 0], [0, 0, 0, 0, 0, 0, 0, 0, 0, 0, 0, 0, 0, 0, 0, 0, 0, 0, 0, 0, 0, 0, 0, 0, 0, 0, 0, 0, 0, 0, 0, 0, 0, 0, 0, 0, 0, 0, 0, 0], [0, 0, 0, 0, 0, 0, 0, 0, 0, 0, 0, 0, 0, 0, 0, 0, 0, 0, 0, 0, 0, 0, 0, 0, 0, 0, 0, 0, 0, 0, 0, 0, 0, 0, 0, 0, 0, 0, 0, 0], [0, 0, 0, 0, 0, 0, 0, 0, 0, 0, 0, 0, 0, 0, 0, 0, 0, 0, 0, 0, 0, 0, 0, 0, 0, 0, 0, 0, 0, 0, 0, 0, 0, 0, 0, 0, 0, 0, 0, 0], [0, 0, 0, 0, 0, 0, 0, 0, 0, 0, 0, 0, 0, 0, 0, 0, 0, 0, 0, 0, 0, 0, 0, 0, 0, 0, 0, 0, 0, 0, 0, 0, 0, 0, 0, 0, 0, 0, 0, 0], [44, 40, 38, 44, 48, 46, 43, 48, 35, 44, 45, 37, 39, 33, 34, 37, 41, 47, 49, 46, 40, 41, 36, 35, 37, 39, 30, 39, 32, 31, 44, 46, 49, 47, 33, 35, 36, 45, 48, 47], [35, 31, 31, 31, 47, 45, 43, 39, 32, 42, 40, 35, 35, 44, 42, 40, 33, 30, 46, 41, 36, 49, 40, 32, 36, 44, 35, 42, 42, 47, 38, 39, 37, 45, 41, 37, 38, 31, 31, 48]], [[0, 0, 0, 0, 0, 0, 0, 0, 0, 0, 0, 0, 0, 0, 0, 0, 0, 0, 0, 0, 0, 0, 0, 0, 0, 0, 0, 0, 0, 0, 0, 0, 0, 0, 0, 0, 0, 0, 0, 0], [0, 0, 0, 0, 0, 0, 0, 0, 0, 0, 0, 0, 0, 0, 0, 0, 0, 0, 0, 0, 0, 0, 0, 0, 0, 0, 0, 0, 0, 0, 0, 0, 0, 0, 0, 0, 0, 0, 0, 0], [0, 0, 0, 0, 0, 0, 0, 0, 0, 0, 0, 0, 0, 0, 0, 0, 0, 0, 0, 0, 0, 0, 0, 0, 0, 0, 0, 0, 0, 0, 0, 0, 0, 0, 0, 0, 0, 0, 0, 0], [0, 0, 0, 0, 0, 0, 0, 0, 0, 0, 0, 0, 0, 0, 0, 0, 0, 0, 0, 0, 0, 0, 0, 0, 0, 0, 0, 0, 0, 0, 0, 0, 0, 0, 0, 0, 0, 0, 0, 0], [0, 0, 0, 0, 0, 0, 0, 0, 0, 0, 0, 0, 0, 0, 0, 0, 0, 0, 0, 0, 0, 0, 0, 0, 0, 0, 0, 0, 0, 0, 0, 0, 0, 0, 0, 0, 0, 0, 0, 0], [0, 0, 0, 0, 0, 0, 0, 0, 0, 0, 0, 0, 0, 0, 0, 0, 0, 0, 0, 0, 0, 0, 0, 0, 0, 0, 0, 0, 0, 0, 0, 0, 0, 0, 0, 0, 0, 0, 0, 0], [0, 0, 0, 0, 0, 0, 0, 0, 0, 0, 0, 0, 0, 0, 0, 0, 0, 0, 0, 0, 0, 0, 0, 0, 0, 0, 0, 0, 0, 0, 0, 0, 0, 0, 0, 0, 0, 0, 0, 0], [49, 48, 35, 38, 36, 48, 47, 50, 31, 48, 45, 48, 46, 31, 37, 42, 35, 48, 33, 34, 37, 38, 33, 47, 42, 39, 47, 46, 49, 46, 49, 32, 42, 42, 32, 41, 50, 34, 30, 50]], [[0, 0, 0, 0, 0, 0, 0, 0, 0, 0, 0, 0, 0, 0, 0, 0, 0, 0, 0, 0, 0, 0, 0, 0, 0, 0, 0, 0, 0, 0, 0, 0, 0, 0, 0, 0, 0, 0, 0, 0], [0, 0, 0, 0, 0, 0, 0, 0, 0, 0, 0, 0, 0, 0, 0, 0, 0, 0, 0, 0, 0, 0, 0, 0, 0, 0, 0, 0, 0, 0, 0, 0, 0, 0, 0, 0, 0, 0, 0, 0], [0, 0, 0, 0, 0, 0, 0, 0, 0, 0, 0, 0, 0, 0, 0, 0, 0, 0, 0, 0, 0, 0, 0, 0, 0, 0, 0, 0, 0, 0, 0, 0, 0, 0, 0, 0, 0, 0, 0, 0], [0, 0, 0, 0, 0, 0, 0, 0, 0, 0, 0, 0, 0, 0, 0, 0, 0, 0, 0, 0, 0, 0, 0, 0, 0, 0, 0, 0, 0, 0, 0, 0, 0, 0, 0, 0, 0, 0, 0, 0], [0, 0, 0, 0, 0, 0, 0, 0, 0, 0, 0, 0, 0, 0, 0, 0, 0, 0, 0, 0, 0, 0, 0, 0, 0, 0, 0, 0, 0, 0, 0, 0, 0, 0, 0, 0, 0, 0, 0, 0], [0, 0, 0, 0, 0, 0, 0, 0, 0, 0, 0, 0, 0, 0, 0, 0, 0, 0, 0, 0, 0, 0, 0, 0, 0, 0, 0, 0, 0, 0, 0, 0, 0, 0, 0, 0, 0, 0, 0, 0], [0, 0, 0, 0, 0, 0, 0, 0, 0, 0, 0, 0, 0, 0, 0, 0, 0, 0, 0, 0, 0, 0, 0, 0, 0, 0, 0, 0, 0, 0, 0, 0, 0, 0, 0, 0, 0, 0, 0, 0], [0, 0, 0, 0, 0, 0, 0, 0, 0, 0, 0, 0, 0, 0, 0, 0, 0, 0, 0, 0, 0, 0, 0, 0, 0, 0, 0, 0, 0, 0, 0, 0, 0, 0, 0, 0, 0, 0, 0, 0]]];

q = [[[9], [25], [5], [12], [14], [14], [19], [25], [9], [21], [13], [17], [19], [9], [12], [10], [17], [8], [13], [8], [13], [7], [25], [17], [7], [19], [11], [6], [15], [21], [6], [9], [22], [9], [20], [21], [7], [7], [12], [18]], [[23], [8], [15], [23], [7], [7], [10], [7], [16], [25], [9], [11], [23], [22], [9], [12], [17], [5], [21], [13], [20], [25], [8], [22], [9], [13], [10], [7], [15], [8], [19], [6], [22], [14], [22], [17], [8], [14], [19], [23]], [[20], [14], [16], [12], [19], [5], [20], [11], [18], [14], [23], [19], [8], [17], [22], [13], [5], [19], [15], [20], [22], [20], [23], [17], [11], [5], [23], [12], [6], [15], [14], [24], [25], [17], [17], [19], [18], [7], [10], [19]], [[17], [19], [25], [20], [9], [7], [20], [11], [22], [23], [5], [16], [9], [18], [21], [24], [22], [8], [13], [25], [18], [10], [25], [11], [9], [23], [5], [17], [20], [25], [22], [18], [24], [17], [7], [11], [5], [23], [9], [14]], [[19], [24], [5], [8], [5], [11], [8], [14], [14], [14], [10], [6], [10], [25], [13], [14], [24], [16], [8], [24], [16], [19], [15], [18], [13], [22], [18], [21], [12], [10], [13], [11], [14], [7], [21], [6], [11], [16], [12], [24]], [[18], [24], [20], [21], [13], [14], [13], [23], [5], [22], [11], [10], [5], [7], [12], [7], [12], [11], [25], [20], [13], [11], [6], [10], [5], [5], [23], [22], [14], [11], [10], [14], [14], [24], [12], [8], [9], [19], [23], [25]], [[16], [17], [18], [14], [20], [11], [25], [14], [20], [5], [6], [16], [8], [13], [20], [10], [14], [15], [14], [17], [19], [17], [15], [18], [22], [10], [24], [23], [17], [11], [18], [5], [13], [21], [7], [25], [14], [6], [21], [6]], [[7], [19], [14], [25], [18], [13], [18], [17], [22], [10], [9], [7], [13], [14], [9], [25], [13], [7], [8], [11], [9], [6], [22], [9], [14], [6], [11], [16], [8], [17], [5], [6], [20], [6], [21], [9], [21], [18], [17], [12]]];
Q = [[55], [58], [63], [64], [57], [57], [60], [53]];
